p cnf 25 144
c 1 string_SYS_VENDOR_EQ_OTHERVAL
c 2 string_SYS_SOC_EQ_OTHERVAL
c 3 string_SYS_CPU_EQ_OTHERVAL
c 4 string_SYS_CONFIG_NAME_EQ_OTHERVAL
c 5 string_SYS_BOARD_EQ_OTHERVAL
c 6 string_SYS_ARCH_EQ_OTHERVAL
c 7 boolean_ARC
c 8 boolean_ARM
c 9 boolean_AVR32
c 10 boolean_BLACKFIN
c 11 boolean_M68K
c 12 boolean_MICROBLAZE
c 13 boolean_MIPS
c 14 boolean_NDS32
c 15 boolean_NIOS2
c 16 boolean_OPENRISC
c 17 boolean_PPC
c 18 boolean_SANDBOX
c 19 boolean_SH
c 20 boolean_SPARC
c 21 boolean_X86
c 22 boolean_CREATE_ARCH_SYMLINK
c 23 boolean_SYS_GENERIC_BOARD
c 24 boolean_HAVE_GENERIC_BOARD
c 25 missFeature
-8 -9 0
-8 -10 0
-8 -11 0
-8 -12 0
-8 -13 0
-8 -14 0
-8 -15 0
-8 -16 0
-8 -17 0
-8 -18 0
-8 -19 0
-8 -20 0
-8 -21 0
-8 -22 0
-9 -10 0
-9 -11 0
-9 -12 0
-9 -13 0
-9 -14 0
-9 -15 0
-9 -16 0
-9 -17 0
-9 -18 0
-9 -19 0
-9 -20 0
-9 -21 0
-9 -22 0
-10 -11 0
-10 -12 0
-10 -13 0
-10 -14 0
-10 -15 0
-10 -16 0
-10 -17 0
-10 -18 0
-10 -19 0
-10 -20 0
-10 -21 0
-10 -22 0
-11 -12 0
-11 -13 0
-11 -14 0
-11 -15 0
-11 -16 0
-11 -17 0
-11 -18 0
-11 -19 0
-11 -20 0
-11 -21 0
-11 -22 0
-12 -13 0
-12 -14 0
-12 -15 0
-12 -16 0
-12 -17 0
-12 -18 0
-12 -19 0
-12 -20 0
-12 -21 0
-12 -22 0
-13 -14 0
-13 -15 0
-13 -16 0
-13 -17 0
-13 -18 0
-13 -19 0
-13 -20 0
-13 -21 0
-13 -22 0
-14 -15 0
-14 -16 0
-14 -17 0
-14 -18 0
-14 -19 0
-14 -20 0
-14 -21 0
-14 -22 0
-15 -16 0
-15 -17 0
-15 -18 0
-15 -19 0
-15 -20 0
-15 -21 0
-15 -22 0
-16 -17 0
-16 -18 0
-16 -19 0
-16 -20 0
-16 -21 0
-16 -22 0
-17 -18 0
-17 -19 0
-17 -20 0
-17 -21 0
-17 -22 0
-18 -19 0
-18 -20 0
-18 -21 0
-18 -22 0
-19 -20 0
-19 -21 0
-19 -22 0
-20 -21 0
-20 -22 0
-21 -22 0
8 9 10 11 12 13 14 15 16 17 18 19 20 21 22 0
-7 0
-6 0
-5 0
-4 0
-3 0
-2 0
23 -22 0
23 -21 0
23 -10 0
23 -9 0
9 10 21 22 -23 0
25 -9 0
25 -8 0
25 -10 0
25 -11 0
25 -13 0
25 -12 0
25 -15 0
25 -19 0
25 -14 0
25 -16 0
25 -18 0
25 -21 0
25 -22 0
8 9 10 11 12 13 14 15 16 18 19 21 22 -25 0
24 -11 0
24 -14 0
24 -9 0
24 -13 0
24 -15 0
24 -12 0
24 -10 0
24 -8 0
24 -18 0
24 -19 0
24 -16 0
24 -22 0
8 9 10 11 12 13 14 15 16 18 19 22 -24 0